S = 8;
start = [|0,25,0,48,21,47,0,37,0,0,0,0,43,0,0,0,36,24,0,61,0,0,0,38,15,0,0,57,6,0,0,0,0,0,0,0,0,0,0,32,7,0,0,0,60,0,0,0,0,0,0,56,0,0,0,0,0,0,0,3,0,29,0,0|
15,9,0,0,0,0,0,0,0,0,30,0,0,0,0,1,0,0,0,0,0,0,2,43,0,0,35,0,52,0,11,34,0,0,0,0,0,0,59,0,0,26,0,0,39,0,0,0,38,20,0,0,0,0,0,0,31,0,0,0,0,0,0,0|
0,0,27,0,0,32,62,54,0,5,0,0,0,48,0,35,21,0,0,7,0,3,0,0,46,0,13,0,0,0,44,0,43,63,0,0,0,0,0,22,0,16,0,0,0,0,0,0,0,15,0,0,0,0,45,0,28,0,6,0,0,0,0,10|
0,0,0,16,0,0,10,26,0,0,0,46,49,6,0,0,0,0,33,0,32,0,59,5,0,7,0,0,0,58,0,0,0,0,0,0,51,0,0,0,0,17,0,0,0,0,36,0,61,0,0,2,0,0,29,0,0,64,0,0,19,54,0,18|
0,0,0,0,0,0,0,0,20,0,0,0,0,40,36,0,0,0,0,51,15,0,0,26,0,55,0,63,0,0,0,10,0,0,33,0,0,0,30,0,0,42,5,0,59,0,0,0,34,0,0,0,0,0,0,0,58,43,0,0,0,53,0,0|
52,0,43,0,0,0,0,35,0,0,47,0,0,0,18,0,0,53,1,34,29,0,0,64,0,0,0,0,0,37,0,0,0,7,0,0,0,3,0,0,63,0,0,0,8,0,33,0,0,0,0,30,0,0,10,0,0,0,0,0,0,0,0,0|
0,60,34,0,36,0,0,0,0,0,39,0,0,0,0,0,0,22,0,0,0,0,11,0,25,0,0,0,0,0,0,0,0,0,0,0,0,0,24,48,35,56,28,0,0,0,52,37,0,0,0,0,0,0,21,0,0,41,0,55,0,1,0,63|
0,0,0,14,44,0,0,3,22,0,0,0,0,10,0,38,50,0,13,0,0,0,0,0,0,0,1,2,47,36,59,0,0,0,45,35,0,0,21,0,0,19,0,0,0,0,30,0,53,37,51,0,0,0,0,0,0,0,0,0,0,11,46,0|
0,31,0,0,0,0,0,0,32,35,0,0,0,0,4,0,0,20,0,0,0,0,0,57,1,0,0,0,0,0,0,0,55,0,0,0,0,58,0,0,0,0,54,25,24,52,63,0,0,0,0,0,64,0,38,56,0,0,16,53,0,0,41,0|
16,0,0,0,0,28,0,64,0,0,0,38,0,0,0,5,27,0,55,52,0,7,0,32,0,0,0,0,12,0,29,0,62,0,21,0,0,0,23,0,0,0,0,34,0,0,45,0,0,26,0,0,14,0,58,49,44,0,0,1,0,0,0,0|
3,0,0,43,0,0,0,0,0,0,0,0,55,0,0,60,0,28,56,9,0,15,31,0,0,0,16,0,0,0,53,0,0,0,0,0,0,0,0,1,12,0,20,22,0,0,0,0,0,0,0,0,0,0,48,0,0,18,0,62,0,0,0,8|
0,0,46,0,0,0,0,0,0,0,0,0,20,0,61,0,0,0,0,26,0,0,43,0,0,0,0,0,13,0,0,0,0,0,38,0,0,0,51,18,0,49,0,0,0,35,0,0,63,34,0,36,0,0,0,0,0,0,0,0,0,0,0,0|
48,0,60,0,9,0,18,0,0,0,0,56,0,43,0,62,25,4,8,0,0,0,0,59,38,46,0,0,0,61,0,0,0,0,0,0,0,0,0,0,0,0,0,0,0,50,0,11,31,0,5,0,29,0,53,0,0,2,0,12,40,0,0,0|
0,0,0,0,45,0,0,0,23,0,16,15,0,0,33,0,19,48,0,0,0,0,0,0,0,52,0,64,11,0,2,0,41,0,0,0,56,0,0,0,9,0,0,0,1,0,0,0,46,0,0,62,0,0,0,0,0,0,0,59,31,0,0,0|
0,0,1,0,15,0,29,0,0,0,7,63,0,0,0,0,0,0,0,39,0,5,0,0,0,26,0,17,0,30,0,42,0,0,0,0,31,0,20,28,0,0,4,0,0,0,0,0,0,0,0,25,27,37,0,55,0,0,45,36,0,0,56,11|
0,0,58,0,0,0,0,0,0,14,0,0,0,24,37,0,2,0,0,0,0,0,0,11,0,0,19,0,0,0,0,0,6,0,0,0,49,36,0,0,42,0,0,62,0,0,0,0,0,0,0,0,0,16,0,12,0,0,0,22,54,0,0,0|
0,0,0,0,0,3,0,0,0,0,0,43,15,0,0,0,31,0,24,0,0,0,0,0,0,0,0,0,0,0,0,0,33,0,32,0,0,0,0,13,57,0,0,0,0,6,2,0,0,0,0,0,54,0,17,0,0,0,0,0,0,52,48,22|
0,0,0,0,50,0,7,0,34,0,0,0,0,39,0,0,0,0,0,0,0,0,0,16,0,0,0,0,0,14,0,0,0,0,0,0,0,0,0,30,0,0,0,33,10,0,13,0,0,0,0,0,21,0,47,0,1,32,56,0,11,0,0,0|
0,0,16,0,0,17,13,0,52,0,21,45,0,61,0,10,0,18,0,30,0,42,0,0,48,0,0,38,0,55,0,0,0,0,35,0,54,0,53,64,51,50,1,0,0,0,0,0,26,0,0,0,0,0,34,0,49,0,36,0,0,0,6,62|
0,0,0,0,0,0,0,45,49,0,0,0,0,0,11,0,0,0,0,0,20,0,0,0,13,0,10,0,39,6,9,0,0,0,0,38,0,34,1,0,32,12,0,0,0,0,0,0,0,46,0,0,0,44,57,40,0,0,50,0,0,27,2,19|
57,0,0,44,0,0,26,0,0,0,0,0,0,0,14,0,0,55,0,0,58,0,0,0,0,0,0,0,56,0,0,0,0,25,0,28,0,0,45,0,54,24,0,4,0,0,0,0,0,0,0,0,0,6,0,0,34,21,0,38,0,0,0,0|
0,61,0,0,0,0,0,0,0,9,0,0,0,0,50,0,10,0,0,0,0,56,0,46,0,0,0,0,0,0,0,0,17,0,0,0,62,0,0,55,0,0,0,0,0,0,58,0,0,0,45,0,0,2,0,0,64,0,25,0,0,0,63,0|
27,0,0,0,0,21,0,0,0,32,1,6,0,18,0,0,0,63,0,0,0,0,0,0,0,0,62,20,0,0,26,0,0,0,47,0,0,0,46,0,0,11,0,0,0,31,0,0,0,0,0,0,0,0,23,0,0,17,0,51,0,33,59,0|
0,47,25,0,0,5,6,0,0,0,0,0,0,0,0,63,0,0,0,0,0,0,0,13,32,0,2,0,0,53,0,0,0,0,0,0,0,0,0,21,15,0,0,0,0,0,0,34,0,0,56,0,0,0,0,0,0,37,0,0,0,46,0,0|
0,0,3,0,0,0,0,0,0,0,29,20,0,23,35,0,0,0,0,0,6,0,51,0,0,0,0,0,0,5,0,0,0,0,0,0,0,28,0,0,0,43,0,0,54,0,24,36,33,0,0,0,0,0,14,39,0,0,0,57,0,0,0,0|
0,0,0,0,0,0,0,0,0,0,0,0,36,28,0,0,0,0,0,0,0,0,0,14,0,0,0,13,0,0,0,0,0,0,1,0,0,0,0,16,0,0,34,0,0,0,38,0,8,0,37,64,0,0,0,0,0,0,0,0,0,0,0,0|
54,0,0,0,0,0,0,0,16,0,14,0,0,22,60,0,34,17,0,20,0,0,0,0,0,41,0,0,0,0,0,0,42,30,0,0,0,31,2,0,0,0,0,0,0,0,0,0,48,0,0,0,0,0,0,63,0,0,46,0,0,0,0,0|
0,0,57,0,27,0,16,62,0,0,0,58,0,21,0,0,0,0,0,40,55,0,0,0,0,0,61,0,0,0,37,0,0,0,6,0,0,0,0,14,29,23,0,0,50,0,0,0,24,0,0,43,0,7,0,0,0,51,0,0,0,10,42,35|
0,0,0,0,0,14,41,0,0,0,0,0,33,0,0,17,0,0,27,0,0,35,12,0,43,0,0,0,42,8,47,0,0,0,0,25,0,0,0,0,0,0,6,0,48,0,0,0,0,0,0,0,0,0,0,10,0,0,9,0,7,24,0,0|
0,8,0,0,0,0,39,48,42,0,0,0,0,37,0,0,0,0,0,0,0,24,0,0,0,1,0,0,7,0,0,54,0,41,0,0,0,9,0,49,0,0,0,0,0,0,0,0,0,0,28,0,0,26,0,0,55,0,0,0,0,0,0,0|
61,0,28,12,0,0,45,0,0,0,6,0,0,0,10,0,0,59,0,3,0,0,0,0,36,0,14,22,0,0,0,0,13,0,0,0,0,0,0,23,0,0,0,0,7,62,0,0,2,0,0,0,0,0,15,0,25,53,0,0,0,0,0,0|
0,58,0,0,10,0,0,0,0,0,0,0,0,9,0,0,0,62,0,0,0,0,0,0,0,0,0,0,0,35,0,33,0,0,0,0,0,18,61,0,0,0,0,0,0,39,0,27,41,1,6,0,0,0,0,0,40,0,19,0,0,0,11,0|
30,0,64,21,0,15,52,0,0,0,4,57,18,7,0,0,13,0,45,43,27,0,0,62,39,0,8,0,58,17,0,0,0,0,0,0,0,0,31,0,0,0,0,0,0,23,34,0,0,0,0,38,11,14,26,0,0,0,55,25,0,0,0,0|
60,45,5,0,0,57,0,0,0,0,56,0,0,0,0,0,0,12,0,0,0,0,0,50,14,0,4,0,41,0,13,63,0,0,54,0,0,0,42,35,26,0,61,0,0,0,7,0,0,0,0,0,0,0,36,0,0,11,0,0,10,0,0,0|
49,0,0,0,0,0,0,0,0,0,0,36,0,0,0,26,53,1,4,0,0,60,61,21,0,0,0,0,0,0,0,0,0,8,0,9,41,0,0,0,0,28,0,0,0,0,48,0,0,2,40,0,0,0,0,0,51,35,0,0,0,0,0,0|
0,59,8,20,0,0,0,0,0,0,0,0,0,0,2,53,0,0,0,10,0,48,23,17,16,0,0,0,43,0,0,61,0,0,0,0,0,51,0,0,0,0,45,57,0,0,0,0,0,0,0,0,1,0,0,41,50,0,18,0,0,0,0,14|
0,0,61,0,39,12,46,0,0,0,25,42,0,0,0,0,0,51,0,0,0,0,0,0,0,0,52,0,0,0,0,0,0,20,40,0,2,0,0,0,0,0,0,0,0,0,32,0,0,0,0,47,0,0,50,24,5,0,0,41,0,0,0,36|
23,0,0,56,0,0,63,29,46,0,0,0,0,0,0,0,0,0,64,37,39,32,0,0,0,0,0,49,1,0,35,26,18,0,0,0,7,0,0,0,0,0,0,0,0,0,0,0,55,0,0,0,22,12,0,0,0,0,0,0,0,34,3,21|
0,0,0,32,18,0,0,0,43,0,0,0,0,0,0,0,42,0,0,0,0,0,20,0,64,57,25,0,27,11,22,50,0,0,19,23,21,0,0,34,0,0,0,0,0,0,0,38,0,0,0,0,0,0,0,0,0,0,48,47,46,0,45,12|
37,0,51,0,0,0,0,0,21,0,32,0,0,0,58,0,0,0,26,0,0,0,7,54,0,0,0,0,0,0,0,30,0,47,0,0,0,6,0,0,0,0,0,12,0,0,0,25,0,16,39,0,56,0,42,0,0,0,0,0,38,0,0,57|
0,0,0,0,0,0,0,0,0,0,0,0,0,0,1,0,0,0,0,0,0,0,0,0,12,0,0,43,0,0,0,48,54,0,0,0,0,0,39,47,0,0,19,0,0,2,56,0,0,0,10,9,0,0,0,0,17,0,0,0,45,0,0,6|
0,0,0,0,57,0,0,0,0,0,0,0,0,0,0,0,0,42,0,0,43,0,0,39,50,0,0,0,24,0,0,0,37,0,0,11,40,21,12,0,28,0,36,3,14,47,0,0,13,45,0,5,0,4,0,20,0,0,0,0,0,60,0,48|
0,36,0,0,0,0,55,0,40,22,0,41,11,54,0,0,0,50,0,47,0,0,48,0,0,0,0,0,0,19,0,4,0,60,0,42,0,0,0,0,34,25,0,0,0,0,61,0,0,0,0,0,8,57,0,0,0,0,0,0,0,0,0,7|
0,0,63,50,0,0,0,0,30,0,58,0,0,14,52,0,46,33,15,12,0,0,21,0,7,0,22,0,0,0,0,0,0,44,0,0,0,0,0,0,0,0,0,0,11,0,0,60,0,0,0,0,0,0,0,0,57,0,0,2,0,0,0,37|
0,7,47,0,0,0,0,20,0,0,0,0,0,0,0,0,0,3,0,14,0,0,0,0,0,0,0,0,0,0,0,0,0,0,57,61,0,0,38,58,5,6,0,0,0,0,0,12,0,0,0,0,51,48,60,0,0,0,0,0,29,0,35,0|
44,12,0,0,0,0,0,0,0,0,0,25,0,53,0,39,0,0,0,38,0,0,0,0,0,0,21,0,0,57,0,51,36,0,0,0,33,0,0,8,0,0,0,0,27,0,42,0,0,0,0,28,0,0,0,0,0,0,0,0,18,0,4,0|
0,10,14,27,0,0,31,0,0,0,0,0,60,0,0,0,63,5,0,0,0,0,0,0,0,0,0,0,0,0,42,0,0,62,0,0,0,0,43,50,0,0,0,0,20,1,18,0,11,0,17,0,0,0,0,59,0,12,39,0,0,36,0,0|
0,4,0,26,37,60,0,0,0,3,0,47,0,36,0,0,0,0,0,0,56,29,0,25,5,0,0,0,0,0,0,0,0,2,0,0,27,64,34,24,0,0,10,0,0,0,0,0,22,0,0,0,12,0,0,0,0,0,11,61,0,0,0,0|
0,30,17,49,0,39,56,0,13,48,0,40,0,63,5,42,0,0,0,35,37,38,0,0,0,0,0,0,2,0,7,45,0,51,53,21,0,60,8,0,0,0,0,15,0,0,0,0,0,0,0,0,0,22,0,0,0,0,0,23,0,0,34,0|
12,0,0,0,0,0,0,28,0,0,0,2,0,0,9,0,0,15,5,54,25,0,0,1,0,0,0,0,0,0,0,0,0,0,0,0,43,0,0,0,0,0,0,0,0,0,0,0,0,0,62,39,0,0,0,29,0,0,0,0,26,3,0,0|
0,0,0,0,53,0,0,0,0,0,0,0,62,0,0,49,0,0,0,18,0,0,64,19,0,0,56,0,0,0,0,0,26,0,0,0,0,0,48,5,58,0,22,0,0,0,0,4,0,54,33,0,0,38,0,0,0,29,52,39,0,0,0,0|
0,13,44,0,26,48,0,14,0,0,0,0,0,0,0,0,0,0,0,0,0,0,4,7,0,0,0,0,0,29,0,35,0,0,0,0,0,0,0,0,52,0,32,0,0,0,49,0,17,63,2,0,0,51,0,0,0,0,0,46,0,64,31,0|
0,35,38,0,0,0,0,0,0,39,0,0,0,0,0,57,0,0,0,0,48,0,0,0,47,0,0,0,0,49,0,0,40,0,0,0,0,0,0,0,0,14,0,7,17,0,62,50,0,43,0,0,0,0,0,58,0,0,33,44,0,0,0,0|
0,0,0,0,0,37,60,58,29,0,0,0,28,0,0,0,0,0,0,0,17,0,39,0,8,43,0,0,0,0,0,0,0,0,7,0,0,44,0,63,31,0,0,59,0,26,0,9,0,12,57,0,10,25,40,0,11,0,2,0,49,0,0,0|
0,0,50,0,0,0,0,43,0,0,23,21,0,27,0,37,0,0,0,0,0,0,58,0,0,38,0,0,0,12,0,0,0,19,0,0,0,55,0,45,0,0,0,0,25,0,0,0,47,44,0,0,31,0,11,0,0,0,0,0,0,0,40,0|
0,0,21,0,0,0,0,0,0,1,0,0,0,32,0,0,0,0,34,0,63,26,0,0,0,0,0,30,60,0,0,62,0,0,0,12,0,33,0,10,0,0,42,0,0,0,0,41,0,0,0,18,5,0,0,0,47,0,0,0,58,0,0,0|
59,0,0,0,52,0,0,0,25,0,0,0,0,38,32,0,0,60,0,6,0,0,0,0,0,0,47,1,55,0,0,0,0,0,48,0,0,0,0,0,0,0,0,0,0,0,23,0,0,0,0,0,35,11,30,0,0,58,21,4,0,44,0,0|
0,0,0,61,0,50,0,0,0,26,22,24,0,45,0,0,0,43,36,0,0,53,0,51,0,0,0,0,0,16,0,0,0,49,0,0,47,0,19,0,0,0,0,0,0,0,0,0,0,0,0,0,0,9,64,27,37,0,0,0,0,0,0,0|
0,0,0,0,0,0,0,0,56,0,19,0,0,0,54,0,48,0,16,0,0,13,0,0,0,0,0,0,18,0,46,0,30,0,0,0,36,0,0,17,0,10,0,0,0,0,41,0,0,0,53,45,0,60,0,0,0,0,0,0,0,42,0,0|
0,0,0,0,0,0,0,0,0,51,0,0,41,0,0,0,39,0,0,0,0,59,15,0,0,58,0,11,53,2,52,0,0,0,0,0,34,0,0,0,0,33,0,0,0,0,60,0,0,0,0,50,0,0,0,46,0,55,0,0,27,0,24,56|
0,53,0,0,0,0,0,18,0,0,0,0,44,42,47,0,0,0,21,0,0,0,0,35,0,54,0,0,0,34,36,32,0,0,0,10,0,0,0,52,0,0,0,6,0,0,59,14,0,38,0,8,0,0,0,0,0,0,64,0,0,62,0,26|
21,0,0,0,58,0,0,19,39,0,0,0,0,0,0,18,0,0,0,5,0,0,0,23,17,0,0,0,0,0,0,13,46,35,0,56,59,0,0,6,0,0,0,61,12,0,22,0,0,0,0,0,0,0,0,0,0,0,0,0,0,0,0,0|
0,0,6,0,0,0,0,41,4,0,13,53,35,0,0,0,8,58,18,0,22,0,10,0,27,0,0,19,0,63,45,0,0,21,9,0,0,0,0,0,0,7,0,0,0,44,0,0,0,0,23,0,0,36,56,0,0,0,0,0,0,38,47,0|
34,0,56,0,0,36,27,0,61,0,0,0,6,0,15,0,0,41,0,0,0,12,0,4,0,0,0,60,0,22,0,0,0,0,0,0,0,0,0,0,0,2,0,0,0,0,0,31,0,29,48,17,26,0,0,0,35,0,0,0,0,0,0,0|];